Version identifier: 22.1.0.0 | 2022-03-09 | 1a383f8ce
CPXPARAM_Threads                                 1
CPXPARAM_MIP_Strategy_VariableSelect             3
CPXPARAM_TimeLimit                               599.99816417900001
Tried aggregator 1 time.
MIP Presolve eliminated 19 rows and 0 columns.
MIP Presolve modified 2 coefficients.
Reduced MIP has 801 rows, 2000 columns, and 17320 nonzeros.
Reduced MIP has 2000 binaries, 0 generals, 0 SOSs, and 0 indicators.
Presolve time = 0.01 sec. (8.50 ticks)
Probing time = 0.00 sec. (2.77 ticks)
Tried aggregator 1 time.
Detecting symmetries...
Reduced MIP has 801 rows, 2000 columns, and 17320 nonzeros.
Reduced MIP has 2000 binaries, 0 generals, 0 SOSs, and 0 indicators.
Presolve time = 0.01 sec. (10.51 ticks)
Probing time = 0.00 sec. (2.77 ticks)
Clique table members: 395.
MIP emphasis: balance optimality and feasibility.
MIP search method: dynamic search.
Parallel mode: none, using 1 thread.
Root relaxation solution time = 0.08 sec. (81.70 ticks)

        Nodes                                         Cuts/
   Node  Left     Objective  IInf  Best Integer    Best Bound    ItCnt     Gap

      0     0        0.0000   429                      0.0000     1026         
*     0+    0                            0.0000        0.0000             0.00%
      0     0        cutoff              0.0000        0.0000     1026    0.00%
Elapsed time = 2.17 sec. (2214.12 ticks, tree = 0.01 MB, solutions = 1)

Root node processing (before b&c):
  Real time             =    2.17 sec. (2214.18 ticks)
Sequential b&c:
  Real time             =    0.00 sec. (0.00 ticks)
                          ------------
Total (root+branch&cut) =    2.17 sec. (2214.18 ticks)
Primal:	100
Dual:	100
Status:	Optimal
Time:	2.18087
Sequence:
	8
	15
	12
	11
	13
	3
	8
	4
	12
	11
	13
	2
	8
	4
	6
	8
	13
	6
	11
	13
	12
	11
	4
	1
	8
	15
	2
	16
	14
	3
	10
	19
	2
	18
	17
	1
	10
	19
	6
	16
	17
	1
	5
	19
	2
	5
	19
	3
	5
	14
	1
	10
	17
	1
	5
	19
	6
	16
	15
	9
	5
	15
	9
	12
	4
	5
	9
	13
	5
	7
	15
	16
	9
	4
	5
	9
	13
	10
	0
	14
	10
	1
	17
	16
	3
	14
	5
	1
	17
	16
	0
	19
	5
	12
	15
	9
	5
	0
	14
	18
